benchmark_str_length/p2_10_15-1.dzn
Alphabet = {A,C,G,T};
ns = 10;
nc = 14;
sl = 14;
neighbours = [| I(C),I(C),Null,Null,Null,Null,Null,Null,Null,Null,Null,Null,Null,Null | I(T),Null,Null,Null,Null,Null,Null,Null,Null,Null,Null,Null,Null,Null | I(A),I(G),I(C),Null,Null,Null,Null,Null,Null,Null,Null,Null,Null,Null | I(A),I(G),I(G),I(A),I(T),I(G),I(A),I(G),I(T),I(C),I(G),I(T),I(T),I(C) | I(A),I(A),I(G),I(G),I(G),I(A),I(C),Null,Null,Null,Null,Null,Null,Null | I(T),I(T),I(C),I(A),I(T),I(T),I(G),I(A),I(G),Null,Null,Null,Null,Null | I(A),I(C),I(C),I(T),Null,Null,Null,Null,Null,Null,Null,Null,Null,Null | I(G),I(A),I(G),I(A),I(G),I(T),I(G),Null,Null,Null,Null,Null,Null,Null | I(C),I(G),I(G),I(T),I(G),I(G),I(T),I(T),I(C),I(C),I(G),Null,Null,Null | I(A),I(G),I(G),I(A),I(T),I(C),I(T),I(C),I(G),I(T),I(G),I(C),I(A),I(A) |];
