benchmark_str_length/p2_10_15-1.txt
{
	"num_strings": 10,
	"alphabet": "ACGT",
	"strings": [
		"CC",
		"T",
		"AGC",
		"AGGATGAGTCGTTC",
		"AAGGGAC",
		"TTCATTGAG",
		"ACCT",
		"GAGAGTG",
		"CGGTGGTTCCG",
		"AGGATCTCGTGCAA"
	],
	"str_length":[2,1,3,14,7,9,4,7,11,14]
}